% seed = 0

mint = 20;
% maxt = 76;

nActs = 32;
dur = [0,3,3,2,1,1,1,4,4,2,2,3,6,3,3,3,2,5,2,2,4,2,2,1,3,3,3,1,1,2,2,0];

nSkills = 12;
sreq = [| 0,0,0,0,0,0,0,0,0,0,0,0,
	| 0,0,0,0,0,1,0,0,0,0,0,0,
	| 0,0,0,1,1,0,0,0,0,0,1,0,
	| 0,1,0,1,0,0,0,1,0,0,0,0,
	| 0,0,0,0,0,1,0,0,1,2,0,0,
	| 1,0,0,1,0,1,0,0,1,2,0,0,
	| 0,0,1,0,0,1,0,1,0,1,1,0,
	| 0,0,0,1,1,1,0,1,1,0,0,0,
	| 0,0,1,0,0,0,0,0,0,0,1,0,
	| 0,0,0,1,1,0,0,0,0,0,1,0,
	| 0,0,0,0,1,1,0,1,0,0,0,0,
	| 0,0,0,0,0,1,0,0,0,1,0,0,
	| 0,0,2,0,0,1,0,0,0,0,0,0,
	| 0,0,0,0,1,1,0,1,1,1,0,0,
	| 0,1,1,0,0,2,0,0,0,0,1,0,
	| 0,1,0,0,2,2,0,0,1,0,0,0,
	| 0,0,1,1,0,1,0,0,1,1,0,0,
	| 0,0,1,0,1,1,0,0,2,0,0,0,
	| 0,0,0,0,0,1,0,0,0,0,0,0,
	| 1,0,0,0,1,0,0,1,1,0,1,0,
	| 1,0,1,0,0,1,0,0,0,1,1,0,
	| 0,0,0,0,0,1,0,0,0,0,0,0,
	| 0,0,1,0,1,2,1,0,0,0,1,0,
	| 0,0,1,0,0,2,0,0,3,0,0,0,
	| 0,0,1,0,0,3,0,0,0,0,1,0,
	| 0,0,0,0,1,0,0,0,0,0,0,0,
	| 0,1,1,1,1,1,0,0,0,0,0,0,
	| 0,0,1,1,0,2,0,0,1,1,0,0,
	| 1,0,0,0,0,0,0,0,0,0,0,0,
	| 0,0,0,1,0,1,0,0,1,0,2,1,
	| 0,0,0,0,0,1,0,1,1,0,0,0,
	| 0,0,0,0,0,0,0,0,0,0,0,0, |];

% SumOfsreq = 117;

nResources = 18;
mastery = [| false,false,false,false,false,false,false,false,false,true,true,true,
	| false,false,false,false,false,true,false,false,false,false,false,false,
	| false,false,false,false,false,true,false,false,false,false,false,false,
	| false,false,false,true,true,true,false,true,true,false,true,true,
	| false,false,false,true,true,true,false,false,false,false,false,false,
	| false,true,true,false,false,false,false,false,false,false,false,false,
	| false,false,false,true,true,true,false,false,false,false,false,false,
	| false,false,false,false,false,false,false,true,true,false,false,false,
	| false,false,true,false,false,false,true,true,true,true,true,true,
	| false,false,false,false,false,false,false,false,true,false,false,false,
	| false,false,false,false,true,true,false,false,false,false,false,false,
	| false,false,false,true,true,true,false,false,false,false,true,true,
	| false,false,false,false,false,false,false,false,false,true,true,true,
	| false,false,false,false,false,false,false,true,true,false,false,false,
	| false,false,true,false,false,false,false,false,false,false,false,false,
	| true,true,true,false,false,false,false,false,false,false,false,false,
	| false,false,false,false,false,true,false,false,false,false,false,false,
	| false,false,false,false,false,false,true,true,true,false,false,false, |];

nPrecs = 48;
pred = [1,1,1,2,2,2,3,3,3,4,4,5,6,7,7,8,8,8,9,10,11,11,12,12,13,14,14,15,16,16,17,18,18,19,20,21,21,22,23,24,25,26,26,27,28,29,30,31];
succ = [2,3,4,9,17,27,10,5,13,25,6,11,7,12,8,26,29,15,13,21,18,19,14,24,16,26,29,19,28,22,18,20,31,28,23,25,23,30,24,28,29,27,31,30,30,32,32,32];

nUnrels = 268;
unpred = [2,2,2,2,2,2,2,2,2,2,2,2,2,2,2,2,3,3,3,3,3,3,3,3,3,3,3,4,4,4,4,4,4,4,4,4,4,4,4,5,5,5,5,5,5,5,5,5,5,5,5,5,5,5,5,5,6,6,6,6,6,6,6,6,6,6,6,6,7,7,7,7,7,7,7,7,7,7,7,7,8,8,8,8,8,8,8,8,8,8,8,8,8,8,8,9,9,9,9,9,9,9,9,9,9,9,9,9,9,9,9,9,10,10,10,10,10,10,10,10,10,10,10,10,10,10,11,11,11,11,11,11,11,11,11,11,11,11,12,12,12,12,12,12,12,12,12,12,12,13,13,13,13,13,13,13,13,13,13,13,13,13,13,14,14,14,14,14,14,14,14,14,14,14,14,15,15,15,15,15,15,15,15,15,15,15,15,15,16,16,16,16,16,16,16,16,16,16,16,16,17,17,17,17,17,17,17,18,18,18,18,18,18,18,19,19,19,19,19,19,19,19,19,19,20,20,20,20,20,20,20,21,21,21,21,22,22,22,22,22,22,22,22,23,23,23,23,23,24,24,24,24,24,25,25,25,25,25,26,26,27,27,27,28,28,29,29,30];
unsucc = [3,4,5,6,7,8,10,11,12,14,15,19,21,25,26,29,4,6,7,8,9,12,14,15,17,26,27,5,9,10,11,13,16,17,18,20,21,22,23,6,7,8,9,10,12,13,14,15,16,17,21,22,25,26,27,29,9,10,11,13,16,17,18,20,21,22,23,25,9,10,11,13,16,17,18,20,21,22,23,25,9,10,11,12,13,14,16,17,18,20,21,22,23,24,25,10,11,12,14,15,17,18,19,20,21,23,24,25,26,27,29,31,11,12,13,14,15,16,17,18,19,20,22,26,27,31,12,13,14,15,16,17,21,22,25,26,27,29,13,15,16,17,18,19,20,21,22,23,25,14,15,17,18,19,20,21,23,24,25,26,27,29,31,15,16,17,18,19,20,21,22,23,24,25,28,16,17,18,20,21,22,23,24,25,26,27,29,31,17,18,19,20,21,23,24,25,26,27,29,31,19,21,22,25,26,27,29,19,21,22,25,26,27,29,20,21,22,23,24,25,26,27,29,31,21,22,25,26,27,29,31,22,26,27,31,23,24,25,26,27,28,29,31,25,26,27,29,31,25,26,27,29,31,26,27,28,30,31,28,29,28,29,31,29,31,30,31,31];

USEFUL_RES = [{},
	{2,3,4,5,7,11,12,17},
	{1,4,5,7,9,11,12,13},
	{4,5,6,7,8,9,12,14,16,18},
	{1,2,3,4,5,7,8,9,10,11,12,13,14,17,18},
	{1,2,3,4,5,7,8,9,10,11,12,13,14,16,17,18},
	{1,2,3,4,5,6,7,8,9,11,12,13,14,15,16,17,18},
	{2,3,4,5,7,8,9,10,11,12,14,17,18},
	{1,4,6,9,12,13,15,16},
	{1,4,5,7,9,11,12,13},
	{2,3,4,5,7,8,9,11,12,14,17,18},
	{1,2,3,4,5,7,9,11,12,13,17},
	{2,3,4,5,6,7,9,11,12,15,16,17},
	{1,2,3,4,5,7,8,9,10,11,12,13,14,17,18},
	{1,2,3,4,5,6,7,9,11,12,13,15,16,17},
	{2,3,4,5,6,7,8,9,10,11,12,14,16,17,18},
	{1,2,3,4,5,6,7,8,9,10,11,12,13,14,15,16,17,18},
	{2,3,4,5,6,7,8,9,10,11,12,14,15,16,17,18},
	{2,3,4,5,7,11,12,17},
	{1,4,5,7,8,9,10,11,12,13,14,16,18},
	{1,2,3,4,5,6,7,9,11,12,13,15,16,17},
	{2,3,4,5,7,11,12,17},
	{1,2,3,4,5,6,7,9,11,12,13,15,16,17,18},
	{2,3,4,5,6,7,8,9,10,11,12,14,15,16,17,18},
	{1,2,3,4,5,6,7,9,11,12,13,15,16,17},
	{4,5,7,11,12},
	{2,3,4,5,6,7,9,11,12,15,16,17},
	{1,2,3,4,5,6,7,8,9,10,11,12,13,14,15,16,17,18},
	{16},
	{1,2,3,4,5,7,8,9,10,11,12,13,14,17,18},
	{2,3,4,5,7,8,9,10,11,12,14,17,18},
	{}];

POTENTIAL_ACT = [{3,5,6,7,9,10,12,14,15,17,20,21,23,25,28,30},
	{2,5,6,7,8,11,12,13,14,15,16,17,18,19,21,22,23,24,25,27,28,30,31},
	{2,5,6,7,8,11,12,13,14,15,16,17,18,19,21,22,23,24,25,27,28,30,31},
	{2,3,4,5,6,7,8,9,10,11,12,13,14,15,16,17,18,19,20,21,22,23,24,25,26,27,28,30,31},
	{2,3,4,5,6,7,8,10,11,12,13,14,15,16,17,18,19,20,21,22,23,24,25,26,27,28,30,31},
	{4,7,9,13,15,16,17,18,21,23,24,25,27,28},
	{2,3,4,5,6,7,8,10,11,12,13,14,15,16,17,18,19,20,21,22,23,24,25,26,27,28,30,31},
	{4,5,6,7,8,11,14,16,17,18,20,24,28,30,31},
	{3,4,5,6,7,8,9,10,11,12,13,14,15,16,17,18,20,21,23,24,25,27,28,30,31},
	{5,6,8,14,16,17,18,20,24,28,30,31},
	{2,3,5,6,7,8,10,11,12,13,14,15,16,17,18,19,20,21,22,23,24,25,26,27,28,30,31},
	{2,3,4,5,6,7,8,9,10,11,12,13,14,15,16,17,18,19,20,21,22,23,24,25,26,27,28,30,31},
	{3,5,6,7,9,10,12,14,15,17,20,21,23,25,28,30},
	{4,5,6,7,8,11,14,16,17,18,20,24,28,30,31},
	{7,9,13,15,17,18,21,23,24,25,27,28},
	{4,6,7,9,13,15,16,17,18,20,21,23,24,25,27,28,29},
	{2,5,6,7,8,11,12,13,14,15,16,17,18,19,21,22,23,24,25,27,28,30,31},
	{4,5,6,7,8,11,14,16,17,18,20,23,24,28,30,31}];
